c ****************************************************************
c **     This is a Sat-2003 Competition *SHUFFLED* instance     **
c ****************************************************************
c N.B. This header has been added to the file after the competition
c Please do contact L. Simon for more informations (simon@lri.fr)
c 
c Bench submitted by: Rachel Bevan (McGill University, Montreal, CA)
c              email: rachel@mcb.mcgill.ca
c 
c The original name of this formula was: 
c    handmade/bevan/cnf/hcb2.cnf
c Category : HandMade
c The name used during the competition was: 
c     handmade/set103/sat03-1430.cnf
c The random seed used to shuffle this instance  was: 1680055876
c 
c CPU time of solvers on this bench during the first stage 
c  (including Hors-Concours solvers):
c   +------------+--------+--------+
c   | Solver     | Time   | Answer |
c   +------------+--------+--------+
c   | berkmin561 |   0.00 |  UNSAT |
c   | bmsat      |   0.00 |  UNSAT |
c   | funex      |   0.00 |  UNSAT |
c   | jerusat1a  |   0.00 |  UNSAT |
c   | jerusat1b  |   0.00 |  UNSAT |
c   | jerusat1c  |   0.00 |  UNSAT |
c   | kcnfs      |   0.00 |  UNSAT |
c   | limmat     |   0.00 |  UNSAT |
c   | marchsp    |   0.00 |  UNSAT |
c   | marchtt    |   0.00 |  UNSAT |
c   | oepir      |   0.00 |  UNSAT |
c   | satnik     |   0.00 |  UNSAT |
c   | sato       |   0.00 |  UNSAT |
c   | satzoo0    |   0.00 |  UNSAT |
c   | satzoo1    |   0.00 |  UNSAT |
c   | siege      |   0.00 |  UNSAT |
c   | tts        |   0.00 |  UNSAT |
c   | xqingting  |   0.00 |  UNSAT |
c   | zchaff     |   0.00 |  UNSAT |
c   | farseer    |   0.01 |  UNSAT |
c   | forklift   |   0.01 |  UNSAT |
c   | lsat       |   0.02 |  UNSAT |
c   | satzilla   |   0.07 |  UNSAT |
c   | opensat    |   0.38 |  UNSAT |
c   | jquest2    |   0.42 |  UNSAT |
c   | berkmin62  |   0.53 |  UNSAT |
c   | satzilla2  |  30.15 |  UNSAT |
c   | amvo       | 900.00 |   --   |
c   | compsat    | 900.00 |   --   |
c   | marchxq    | 900.00 |   --   |
c   | qingting   | 900.00 |   --   |
c   | saturn     | 900.00 |   --   |
c   | unitwalk   | 900.00 |   --   |
c   +------------+--------+--------+
c
c Old header begins here:
c The random seed used to shuffle this instance was seed=1680055876
p cnf 12 32
4 6 -2 0
-4 -6 -2 0
3 -6 -8 0
6 -8 -3 0
5 -1 -3 0
11 -12 7 0
8 -10 9 0
10 11 -4 0
2 -7 5 0
1 -3 -5 0
-12 -7 -11 0
-7 -5 -2 0
1 -9 -12 0
3 -1 -5 0
-9 -10 -8 0
8 3 6 0
-11 -4 -10 0
1 3 5 0
8 10 -9 0
-5 7 2 0
5 -2 7 0
-1 12 -9 0
4 11 -10 0
2 -4 6 0
-12 -1 9 0
4 2 -6 0
-11 12 7 0
-3 8 -6 0
12 11 -7 0
10 -11 4 0
9 10 -8 0
1 12 9 0
